(set-info :source |printed by MathSAT|)
(declare-fun ldv_module_refcounter () (_ BitVec 32))

*:
(assert (let ((.def_28243 (= ldv_module_refcounter (_ bv1 32)))).def_28243))
(assert (let ((.def_28248 (bvslt (_ bv1 32) ldv_module_refcounter))).def_28248))

